\ SCIP STATISTICS
\   Problem name     : SetCover-150-150
\   Variables        : 150 (150 binary, 0 integer, 0 implicit integer, 0 continuous)
\   Constraints      : 150
Minimize
 Obj: +52 x0 +64 x1 +80 x2 +15 x3 +60 x4 +69 x5 +49 x6 +82 x7 +75 x8 +69 x9 +5 x10 +79 x11 +2 x12 +24 x13
      +9 x14 +35 x15 +73 x16 +98 x17 +95 x18 +91 x19 +97 x20 +12 x21 +72 x22 +8 x23 +89 x24 +68 x25 +8 x26
      +49 x27 +21 x28 +95 x29 +56 x30 +90 x31 +80 x32 +80 x33 +64 x34 +36 x35 +61 x36 +31 x37 +57 x38
      +1 x39 +20 x40 +75 x41 +84 x42 +78 x43 +2 x44 +85 x45 +97 x46 +7 x47 +4 x48 +78 x49 +8 x50 +8 x51
      +11 x52 +21 x53 +82 x54 +5 x55 +19 x56 +75 x57 +76 x58 +91 x59 +15 x60 +6 x61 +17 x62 +45 x63 +71 x64
      +30 x65 +16 x66 +15 x67 +63 x68 +61 x69 +1 x70 +88 x71 +99 x72 +46 x73 +80 x74 +24 x75 +34 x76 +17 x77
      +42 x78 +74 x79 +31 x80 +87 x81 +68 x82 +41 x83 +78 x84 +70 x85 +15 x86 +92 x87 +6 x88 +34 x89 +50 x90
      +9 x91 +43 x92 +17 x93 +21 x94 +66 x95 +59 x96 +15 x97 +7 x98 +60 x99 +61 x100 +29 x101 +69 x102
      +33 x103 +60 x104 +98 x105 +33 x106 +1 x107 +79 x108 +22 x109 +56 x110 +100 x111 +74 x112 +58 x113
      +29 x114 +88 x115 +11 x116 +92 x117 +24 x118 +52 x119 +28 x120 +51 x121 +26 x122 +19 x123 +67 x124
      +62 x125 +64 x126 +45 x127 +60 x128 +81 x129 +73 x130 +6 x131 +92 x132 +79 x133 +46 x134 +33 x135
      +7 x136 +79 x137 +18 x138 +56 x139 +72 x140 +22 x141 +68 x142 +27 x143 +26 x144 +99 x145 +45 x146
      +50 x147 +39 x148 +55 x149
Subject to
 c0: +1 x2 +1 x18 +1 x23 +1 x29 +1 x34 +1 x38 +1 x41 +1 x48 +1 x51 +1 x56 +1 x61 +1 x76 +1 x89 +1 x93
  +1 x94 +1 x96 +1 x100 +1 x101 +1 x103 +1 x131 +1 x135 +1 x142 +1 x145 >= +1
 c1: +1 x2 +1 x6 +1 x9 +1 x17 +1 x20 +1 x21 +1 x40 +1 x59 +1 x65 +1 x68 +1 x70 +1 x72 +1 x92 +1 x95 +1 x98
  +1 x101 +1 x114 +1 x126 +1 x128 +1 x145 >= +1
 c2: +1 x3 +1 x7 +1 x9 +1 x10 +1 x24 +1 x28 +1 x31 +1 x32 +1 x36 +1 x37 +1 x43 +1 x51 +1 x60 +1 x61 +1 x80
  +1 x84 +1 x90 +1 x92 +1 x110 +1 x116 +1 x120 +1 x129 +1 x145 >= +1
 c3: +1 x1 +1 x7 +1 x11 +1 x14 +1 x18 +1 x20 +1 x25 +1 x27 +1 x30 +1 x38 +1 x43 +1 x54 +1 x55 +1 x56 +1 x57
  +1 x75 +1 x81 +1 x91 +1 x94 +1 x95 +1 x99 +1 x110 +1 x124 +1 x128 +1 x140 +1 x143 >= +1
 c4: +1 x5 +1 x7 +1 x11 +1 x20 +1 x28 +1 x32 +1 x56 +1 x65 +1 x70 +1 x72 +1 x73 +1 x79 +1 x83 +1 x99 +1 x108
  +1 x112 +1 x122 +1 x125 +1 x133 +1 x137 +1 x144 +1 x146 >= +1
 c5: +1 x6 +1 x11 +1 x12 +1 x13 +1 x14 +1 x19 +1 x44 +1 x55 +1 x59 +1 x71 +1 x87 +1 x90 +1 x91 +1 x102
  +1 x113 +1 x120 +1 x130 >= +1
 c6: +1 x4 +1 x10 +1 x25 +1 x34 +1 x41 +1 x47 +1 x60 +1 x66 +1 x73 +1 x83 +1 x87 +1 x97 +1 x112 >= +1
 c7: +1 x6 +1 x10 +1 x24 +1 x38 +1 x42 +1 x48 +1 x52 +1 x57 +1 x61 +1 x66 +1 x80 +1 x90 +1 x94 +1 x105
  +1 x108 +1 x110 +1 x115 +1 x118 +1 x130 >= +1
 c8: +1 x6 +1 x9 +1 x24 +1 x28 +1 x34 +1 x35 +1 x43 +1 x44 +1 x50 +1 x52 +1 x56 +1 x58 +1 x64 +1 x65 +1 x75
  +1 x88 +1 x108 +1 x115 +1 x120 +1 x125 +1 x149 >= +1
 c9: +1 x3 +1 x9 +1 x22 +1 x24 +1 x35 +1 x37 +1 x49 +1 x59 +1 x74 +1 x77 +1 x80 +1 x82 +1 x92 +1 x95 +1 x103
  +1 x109 +1 x110 +1 x114 +1 x120 +1 x124 +1 x137 +1 x140 >= +1
 c10: +1 x4 +1 x8 +1 x16 +1 x20 +1 x22 +1 x25 +1 x26 +1 x28 +1 x29 +1 x30 +1 x34 +1 x45 +1 x55 +1 x60
  +1 x76 +1 x80 +1 x84 +1 x91 +1 x98 +1 x102 +1 x111 +1 x117 +1 x119 +1 x137 +1 x139 +1 x146 +1 x147 >= +1
 c11: +1 x3 +1 x8 +1 x23 +1 x24 +1 x31 +1 x33 +1 x44 +1 x50 +1 x52 +1 x58 +1 x72 +1 x73 +1 x91 +1 x96
  +1 x99 +1 x103 +1 x107 +1 x111 +1 x117 +1 x119 +1 x120 +1 x121 +1 x123 +1 x139 +1 x141 +1 x147 >= +1
 c12: +1 x0 +1 x16 +1 x21 +1 x22 +1 x24 +1 x30 +1 x35 +1 x52 +1 x56 +1 x57 +1 x60 +1 x65 +1 x81 +1 x99
  +1 x101 +1 x110 +1 x112 +1 x114 +1 x123 +1 x133 +1 x144 >= +1
 c13: +1 x3 +1 x10 +1 x16 +1 x19 +1 x31 +1 x35 +1 x47 +1 x65 +1 x69 +1 x70 +1 x71 +1 x74 +1 x75 +1 x92
  +1 x94 +1 x103 +1 x104 +1 x108 +1 x113 +1 x127 +1 x134 +1 x141 +1 x143 +1 x146 +1 x148 >= +1
 c14: +1 x1 +1 x23 +1 x34 +1 x44 +1 x48 +1 x56 +1 x57 +1 x58 +1 x59 +1 x62 +1 x73 +1 x78 +1 x89 +1 x96
  +1 x106 +1 x107 +1 x122 +1 x135 +1 x138 +1 x139 >= +1
 c15: +1 x1 +1 x10 +1 x11 +1 x16 +1 x28 +1 x39 +1 x42 +1 x46 +1 x49 +1 x59 +1 x65 +1 x88 +1 x89 +1 x93
  +1 x105 +1 x106 +1 x120 +1 x123 +1 x133 +1 x137 +1 x149 >= +1
 c16: +1 x4 +1 x8 +1 x14 +1 x52 +1 x58 +1 x59 +1 x64 +1 x65 +1 x67 +1 x81 +1 x85 +1 x86 +1 x95 +1 x100
  +1 x111 +1 x115 +1 x123 +1 x126 +1 x141 +1 x143 +1 x145 +1 x149 >= +1
 c17: +1 x4 +1 x18 +1 x27 +1 x31 +1 x32 +1 x36 +1 x43 +1 x48 +1 x49 +1 x64 +1 x73 +1 x82 +1 x88 +1 x101
  +1 x106 +1 x112 +1 x114 +1 x115 +1 x119 +1 x132 +1 x140 +1 x141 +1 x146 >= +1
 c18: +1 x0 +1 x9 +1 x10 +1 x12 +1 x20 +1 x23 +1 x28 +1 x31 +1 x49 +1 x50 +1 x53 +1 x56 +1 x58 +1 x64
  +1 x66 +1 x83 +1 x86 +1 x90 +1 x95 +1 x99 +1 x103 +1 x111 +1 x137 +1 x148 >= +1
 c19: +1 x0 +1 x18 +1 x57 +1 x59 +1 x66 +1 x71 +1 x80 +1 x87 +1 x103 +1 x104 +1 x106 +1 x119 +1 x121 +1 x141
  +1 x145 >= +1
 c20: +1 x4 +1 x8 +1 x11 +1 x14 +1 x26 +1 x27 +1 x32 +1 x40 +1 x41 +1 x48 +1 x57 +1 x60 +1 x63 +1 x71
  +1 x72 +1 x89 +1 x90 +1 x102 +1 x105 +1 x109 +1 x116 +1 x117 +1 x127 +1 x140 +1 x148 >= +1
 c21: +1 x5 +1 x13 +1 x19 +1 x23 +1 x26 +1 x35 +1 x38 +1 x45 +1 x48 +1 x53 +1 x61 +1 x73 +1 x74 +1 x84
  +1 x86 +1 x87 +1 x99 +1 x104 +1 x107 +1 x114 +1 x124 +1 x128 +1 x132 +1 x137 +1 x144 >= +1
 c22: +1 x5 +1 x6 +1 x9 +1 x12 +1 x21 +1 x42 +1 x50 +1 x51 +1 x68 +1 x74 +1 x78 +1 x82 +1 x86 +1 x87 +1 x88
  +1 x91 +1 x97 +1 x108 +1 x111 +1 x115 +1 x120 +1 x122 +1 x126 +1 x129 +1 x141 +1 x145 >= +1
 c23: +1 x3 +1 x11 +1 x26 +1 x55 +1 x60 +1 x63 +1 x69 +1 x77 +1 x79 +1 x80 +1 x86 +1 x87 +1 x101 +1 x108
  +1 x110 +1 x115 +1 x132 +1 x134 +1 x142 +1 x143 >= +1
 c24: +1 x3 +1 x10 +1 x11 +1 x20 +1 x24 +1 x33 +1 x38 +1 x39 +1 x41 +1 x47 +1 x62 +1 x64 +1 x68 +1 x82
  +1 x88 +1 x93 +1 x97 +1 x107 +1 x110 +1 x111 +1 x115 +1 x120 +1 x129 +1 x137 +1 x148 >= +1
 c25: +1 x0 +1 x17 +1 x26 +1 x34 +1 x52 +1 x53 +1 x55 +1 x64 +1 x65 +1 x70 +1 x73 +1 x74 +1 x76 +1 x90
  +1 x96 +1 x104 +1 x105 +1 x110 +1 x114 +1 x124 +1 x147 >= +1
 c26: +1 x1 +1 x8 +1 x13 +1 x23 +1 x28 +1 x30 +1 x35 +1 x41 +1 x43 +1 x46 +1 x51 +1 x59 +1 x60 +1 x64
  +1 x65 +1 x71 +1 x72 +1 x74 +1 x83 +1 x90 +1 x92 +1 x120 +1 x121 +1 x141 +1 x142 >= +1
 c27: +1 x2 +1 x17 +1 x27 +1 x32 +1 x40 +1 x47 +1 x50 +1 x53 +1 x54 +1 x55 +1 x57 +1 x59 +1 x61 +1 x79
  +1 x81 +1 x93 +1 x104 +1 x120 +1 x132 +1 x136 +1 x140 +1 x149 >= +1
 c28: +1 x5 +1 x18 +1 x21 +1 x24 +1 x26 +1 x29 +1 x32 +1 x36 +1 x37 +1 x38 +1 x51 +1 x54 +1 x66 +1 x70
  +1 x71 +1 x72 +1 x82 +1 x88 +1 x93 +1 x109 +1 x119 +1 x124 +1 x131 +1 x133 >= +1
 c29: +1 x1 +1 x7 +1 x30 +1 x38 +1 x49 +1 x53 +1 x55 +1 x64 +1 x66 +1 x75 +1 x84 +1 x86 +1 x94 +1 x100
  +1 x108 +1 x109 +1 x112 +1 x120 +1 x122 +1 x130 +1 x132 +1 x140 >= +1
 c30: +1 x3 +1 x9 +1 x14 +1 x20 +1 x22 +1 x36 +1 x39 +1 x44 +1 x54 +1 x55 +1 x59 +1 x61 +1 x70 +1 x77
  +1 x82 +1 x86 +1 x92 +1 x119 +1 x123 +1 x128 +1 x133 +1 x138 +1 x142 +1 x145 >= +1
 c31: +1 x1 +1 x9 +1 x15 +1 x19 +1 x24 +1 x44 +1 x47 +1 x54 +1 x57 +1 x58 +1 x64 +1 x65 +1 x68 +1 x87
  +1 x90 +1 x94 +1 x107 +1 x111 +1 x113 +1 x126 +1 x132 +1 x140 +1 x141 >= +1
 c32: +1 x4 +1 x27 +1 x46 +1 x51 +1 x75 +1 x95 +1 x107 +1 x112 +1 x116 +1 x128 +1 x135 +1 x140 +1 x147
  +1 x149 >= +1
 c33: +1 x1 +1 x10 +1 x12 +1 x16 +1 x21 +1 x44 +1 x71 +1 x72 +1 x82 +1 x96 +1 x109 +1 x121 +1 x122 +1 x133
  +1 x136 +1 x140 >= +1
 c34: +1 x2 +1 x8 +1 x10 +1 x18 +1 x19 +1 x21 +1 x25 +1 x28 +1 x30 +1 x36 +1 x39 +1 x61 +1 x68 +1 x74
  +1 x81 +1 x82 +1 x87 +1 x88 +1 x106 +1 x107 +1 x108 +1 x115 +1 x124 +1 x137 +1 x139 >= +1
 c35: +1 x1 +1 x22 +1 x24 +1 x29 +1 x44 +1 x47 +1 x56 +1 x67 +1 x75 +1 x80 +1 x87 +1 x88 +1 x91 +1 x94
  +1 x99 +1 x109 +1 x113 +1 x114 +1 x128 +1 x130 +1 x132 +1 x137 +1 x140 +1 x146 >= +1
 c36: +1 x4 +1 x8 +1 x17 +1 x19 +1 x33 +1 x37 +1 x38 +1 x44 +1 x51 +1 x58 +1 x72 +1 x80 +1 x81 +1 x89
  +1 x127 +1 x128 +1 x129 +1 x138 +1 x139 >= +1
 c37: +1 x0 +1 x17 +1 x22 +1 x28 +1 x31 +1 x48 +1 x49 +1 x67 +1 x85 +1 x91 +1 x101 +1 x107 +1 x113 +1 x135
  +1 x141 >= +1
 c38: +1 x0 +1 x10 +1 x11 +1 x17 +1 x19 +1 x24 +1 x35 +1 x39 +1 x42 +1 x55 +1 x58 +1 x65 +1 x73 +1 x78
  +1 x86 +1 x87 +1 x91 +1 x101 +1 x104 +1 x106 +1 x107 +1 x112 +1 x117 +1 x119 +1 x128 +1 x148 +1 x149
  >= +1
 c39: +1 x5 +1 x8 +1 x17 +1 x19 +1 x24 +1 x30 +1 x32 +1 x33 +1 x41 +1 x56 +1 x57 +1 x64 +1 x72 +1 x75
  +1 x76 +1 x82 +1 x84 +1 x91 +1 x93 +1 x96 +1 x111 +1 x118 +1 x139 >= +1
 c40: +1 x6 +1 x13 +1 x18 +1 x24 +1 x25 +1 x29 +1 x34 +1 x41 +1 x42 +1 x47 +1 x54 +1 x59 +1 x61 +1 x71
  +1 x79 +1 x90 +1 x102 +1 x113 +1 x115 +1 x118 +1 x122 +1 x124 +1 x131 +1 x132 +1 x145 >= +1
 c41: +1 x0 +1 x11 +1 x12 +1 x13 +1 x14 +1 x15 +1 x17 +1 x26 +1 x47 +1 x51 +1 x63 +1 x68 +1 x87 +1 x89
  +1 x100 +1 x104 +1 x106 +1 x126 +1 x131 +1 x133 +1 x138 >= +1
 c42: +1 x1 +1 x17 +1 x21 +1 x22 +1 x25 +1 x27 +1 x31 +1 x37 +1 x40 +1 x43 +1 x44 +1 x62 +1 x63 +1 x76
  +1 x80 +1 x89 +1 x104 +1 x108 +1 x112 +1 x115 +1 x124 +1 x125 +1 x126 +1 x136 >= +1
 c43: +1 x5 +1 x21 +1 x38 +1 x39 +1 x41 +1 x45 +1 x49 +1 x53 +1 x55 +1 x56 +1 x64 +1 x65 +1 x68 +1 x74
  +1 x75 +1 x96 +1 x108 +1 x131 +1 x132 +1 x138 +1 x146 >= +1
 c44: +1 x4 +1 x10 +1 x22 +1 x29 +1 x33 +1 x34 +1 x35 +1 x43 +1 x45 +1 x47 +1 x53 +1 x55 +1 x59 +1 x60
  +1 x61 +1 x72 +1 x74 +1 x88 +1 x99 +1 x102 +1 x104 +1 x105 +1 x107 +1 x109 +1 x111 +1 x117 +1 x118 +1 x130
  +1 x131 +1 x132 +1 x139 +1 x145 >= +1
 c45: +1 x5 +1 x8 +1 x10 +1 x19 +1 x27 +1 x32 +1 x48 +1 x52 +1 x69 +1 x73 +1 x76 +1 x83 +1 x97 +1 x114
  +1 x115 +1 x125 +1 x127 +1 x137 >= +1
 c46: +1 x2 +1 x13 +1 x21 +1 x24 +1 x29 +1 x34 +1 x38 +1 x42 +1 x43 +1 x45 +1 x49 +1 x59 +1 x61 +1 x65
  +1 x72 +1 x92 +1 x103 +1 x105 +1 x110 +1 x117 +1 x121 +1 x123 +1 x124 +1 x127 +1 x128 +1 x132 +1 x147
  >= +1
 c47: +1 x0 +1 x10 +1 x20 +1 x30 +1 x59 +1 x61 +1 x68 +1 x69 +1 x72 +1 x94 +1 x104 +1 x107 +1 x114 +1 x117
  +1 x128 +1 x134 +1 x135 +1 x136 +1 x141 +1 x147 >= +1
 c48: +1 x6 +1 x10 +1 x34 +1 x38 +1 x47 +1 x54 +1 x55 +1 x56 +1 x57 +1 x58 +1 x59 +1 x62 +1 x63 +1 x64
  +1 x88 +1 x89 +1 x107 +1 x109 +1 x123 +1 x137 +1 x145 +1 x147 >= +1
 c49: +1 x0 +1 x7 +1 x12 +1 x19 +1 x27 +1 x28 +1 x38 +1 x44 +1 x56 +1 x57 +1 x59 +1 x64 +1 x66 +1 x84
  +1 x91 +1 x94 +1 x106 +1 x114 +1 x115 +1 x122 +1 x128 +1 x133 +1 x143 +1 x144 >= +1
 c50: +1 x3 +1 x12 +1 x37 +1 x46 +1 x49 +1 x51 +1 x54 +1 x64 +1 x67 +1 x87 +1 x88 +1 x94 +1 x98 +1 x100
  +1 x104 +1 x118 +1 x121 +1 x123 +1 x126 +1 x128 +1 x135 +1 x136 +1 x143 +1 x146 >= +1
 c51: +1 x3 +1 x6 +1 x7 +1 x8 +1 x11 +1 x13 +1 x27 +1 x28 +1 x32 +1 x38 +1 x42 +1 x59 +1 x61 +1 x73 +1 x88
  +1 x98 +1 x104 +1 x105 +1 x109 +1 x119 +1 x127 +1 x130 +1 x131 +1 x135 +1 x143 >= +1
 c52: +1 x6 +1 x7 +1 x11 +1 x15 +1 x18 +1 x19 +1 x20 +1 x36 +1 x49 +1 x52 +1 x62 +1 x83 +1 x90 +1 x96
  +1 x106 +1 x117 +1 x128 +1 x135 +1 x148 >= +1
 c53: +1 x0 +1 x32 +1 x39 +1 x41 +1 x43 +1 x49 +1 x53 +1 x55 +1 x63 +1 x64 +1 x65 +1 x67 +1 x79 +1 x82
  +1 x98 +1 x108 +1 x140 +1 x146 +1 x148 >= +1
 c54: +1 x5 +1 x10 +1 x13 +1 x26 +1 x39 +1 x43 +1 x48 +1 x59 +1 x65 +1 x80 +1 x83 +1 x92 +1 x115 +1 x118
  +1 x129 +1 x133 +1 x134 +1 x141 +1 x144 >= +1
 c55: +1 x5 +1 x11 +1 x31 +1 x33 +1 x41 +1 x44 +1 x47 +1 x55 +1 x58 +1 x59 +1 x60 +1 x74 +1 x76 +1 x90
  +1 x93 +1 x99 +1 x109 +1 x110 +1 x121 +1 x129 +1 x130 +1 x138 +1 x145 +1 x147 +1 x149 >= +1
 c56: +1 x2 +1 x9 +1 x12 +1 x19 +1 x27 +1 x30 +1 x31 +1 x39 +1 x43 +1 x52 +1 x63 +1 x64 +1 x66 +1 x70
  +1 x80 +1 x82 +1 x88 +1 x92 +1 x123 +1 x125 +1 x127 +1 x136 +1 x146 +1 x148 >= +1
 c57: +1 x1 +1 x13 +1 x14 +1 x16 +1 x22 +1 x24 +1 x29 +1 x59 +1 x75 +1 x92 +1 x95 +1 x100 +1 x111 +1 x112
  +1 x116 +1 x134 +1 x135 +1 x136 +1 x141 +1 x145 +1 x148 >= +1
 c58: +1 x0 +1 x9 +1 x17 +1 x31 +1 x34 +1 x40 +1 x43 +1 x47 +1 x50 +1 x70 +1 x77 +1 x82 +1 x88 +1 x94
  +1 x104 +1 x111 +1 x112 +1 x116 +1 x130 +1 x139 +1 x142 +1 x143 +1 x145 +1 x147 +1 x149 >= +1
 c59: +1 x1 +1 x15 +1 x18 +1 x27 +1 x30 +1 x31 +1 x41 +1 x50 +1 x51 +1 x57 +1 x61 +1 x65 +1 x73 +1 x75
  +1 x77 +1 x82 +1 x86 +1 x90 +1 x95 +1 x104 +1 x111 +1 x115 +1 x120 +1 x121 +1 x123 +1 x125 +1 x131 +1 x137
  +1 x139 +1 x146 >= +1
 c60: +1 x0 +1 x31 +1 x47 +1 x53 +1 x55 +1 x66 +1 x77 +1 x84 +1 x89 +1 x102 +1 x115 +1 x119 +1 x122 +1 x125
  +1 x129 +1 x130 +1 x131 +1 x134 +1 x141 >= +1
 c61: +1 x3 +1 x11 +1 x36 +1 x39 +1 x40 +1 x42 +1 x43 +1 x44 +1 x45 +1 x46 +1 x74 +1 x77 +1 x89 +1 x92
  +1 x93 +1 x97 +1 x100 +1 x111 +1 x113 +1 x125 +1 x129 +1 x144 +1 x148 >= +1
 c62: +1 x3 +1 x12 +1 x39 +1 x44 +1 x45 +1 x53 +1 x54 +1 x75 +1 x90 +1 x103 +1 x104 +1 x108 +1 x113 +1 x116
  +1 x119 +1 x129 +1 x140 +1 x141 >= +1
 c63: +1 x1 +1 x8 +1 x9 +1 x11 +1 x33 +1 x36 +1 x58 +1 x62 +1 x66 +1 x69 +1 x76 +1 x85 +1 x86 +1 x88 +1 x100
  +1 x106 +1 x108 +1 x113 +1 x118 +1 x119 +1 x124 +1 x137 +1 x141 +1 x147 >= +1
 c64: +1 x5 +1 x7 +1 x10 +1 x16 +1 x17 +1 x20 +1 x21 +1 x23 +1 x24 +1 x29 +1 x31 +1 x38 +1 x46 +1 x61
  +1 x72 +1 x79 +1 x86 +1 x89 +1 x104 +1 x112 +1 x123 +1 x134 +1 x147 >= +1
 c65: +1 x4 +1 x11 +1 x13 +1 x23 +1 x24 +1 x25 +1 x33 +1 x35 +1 x37 +1 x46 +1 x54 +1 x60 +1 x68 +1 x71
  +1 x72 +1 x77 +1 x86 +1 x89 +1 x105 +1 x107 +1 x129 +1 x134 +1 x148 >= +1
 c66: +1 x6 +1 x21 +1 x23 +1 x30 +1 x32 +1 x40 +1 x42 +1 x44 +1 x58 +1 x60 +1 x69 +1 x70 +1 x72 +1 x82
  +1 x90 +1 x91 +1 x103 +1 x105 +1 x111 +1 x114 +1 x116 +1 x125 +1 x126 +1 x132 +1 x137 +1 x139 +1 x142
  +1 x145 >= +1
 c67: +1 x3 +1 x10 +1 x20 +1 x32 +1 x39 +1 x42 +1 x45 +1 x46 +1 x64 +1 x65 +1 x77 +1 x89 +1 x95 +1 x97
  +1 x115 +1 x124 +1 x126 +1 x127 +1 x131 +1 x145 >= +1
 c68: +1 x1 +1 x8 +1 x12 +1 x53 +1 x67 +1 x75 +1 x77 +1 x80 +1 x84 +1 x109 +1 x135 +1 x142 +1 x143 +1 x144
  >= +1
 c69: +1 x3 +1 x48 +1 x49 +1 x50 +1 x73 +1 x83 +1 x90 +1 x91 +1 x98 +1 x102 +1 x114 +1 x134 +1 x135 +1 x136
  +1 x138 +1 x146 +1 x147 >= +1
 c70: +1 x6 +1 x10 +1 x31 +1 x51 +1 x56 +1 x58 +1 x59 +1 x65 +1 x66 +1 x87 +1 x91 +1 x92 +1 x93 +1 x94
  +1 x104 +1 x116 +1 x117 +1 x123 +1 x128 +1 x145 >= +1
 c71: +1 x4 +1 x9 +1 x16 +1 x18 +1 x21 +1 x29 +1 x33 +1 x36 +1 x38 +1 x43 +1 x56 +1 x61 +1 x67 +1 x69
  +1 x73 +1 x75 +1 x77 +1 x78 +1 x79 +1 x80 +1 x84 +1 x88 +1 x90 +1 x91 +1 x96 +1 x97 +1 x114 +1 x116
  +1 x119 +1 x125 +1 x126 +1 x127 +1 x131 +1 x143 +1 x144 +1 x147 >= +1
 c72: +1 x3 +1 x13 +1 x25 +1 x29 +1 x42 +1 x54 +1 x55 +1 x59 +1 x62 +1 x63 +1 x67 +1 x72 +1 x73 +1 x100
  +1 x102 +1 x106 +1 x109 +1 x118 +1 x120 +1 x124 +1 x129 +1 x130 +1 x137 +1 x142 +1 x147 >= +1
 c73: +1 x4 +1 x8 +1 x11 +1 x12 +1 x19 +1 x22 +1 x27 +1 x48 +1 x49 +1 x50 +1 x51 +1 x52 +1 x57 +1 x67
  +1 x72 +1 x74 +1 x88 +1 x95 +1 x110 +1 x112 +1 x117 +1 x120 +1 x124 +1 x141 +1 x142 +1 x147 >= +1
 c74: +1 x5 +1 x9 +1 x11 +1 x23 +1 x39 +1 x54 +1 x56 +1 x67 +1 x73 +1 x75 +1 x79 +1 x84 +1 x88 +1 x102
  +1 x145 >= +1
 c75: +1 x4 +1 x15 +1 x28 +1 x29 +1 x39 +1 x40 +1 x45 +1 x50 +1 x62 +1 x71 +1 x81 +1 x111 +1 x118 +1 x126
  +1 x135 >= +1
 c76: +1 x1 +1 x8 +1 x13 +1 x14 +1 x22 +1 x37 +1 x42 +1 x46 +1 x52 +1 x53 +1 x55 +1 x68 +1 x72 +1 x85
  +1 x98 +1 x99 +1 x115 +1 x117 +1 x118 +1 x140 +1 x141 +1 x142 +1 x143 >= +1
 c77: +1 x1 +1 x7 +1 x8 +1 x9 +1 x11 +1 x17 +1 x20 +1 x29 +1 x30 +1 x31 +1 x40 +1 x49 +1 x59 +1 x63 +1 x75
  +1 x93 +1 x103 +1 x112 +1 x113 +1 x117 +1 x120 +1 x121 +1 x129 +1 x131 +1 x136 +1 x143 >= +1
 c78: +1 x3 +1 x11 +1 x15 +1 x22 +1 x26 +1 x32 +1 x39 +1 x40 +1 x42 +1 x45 +1 x52 +1 x69 +1 x98 +1 x106
  +1 x110 +1 x112 +1 x121 +1 x125 +1 x128 +1 x137 +1 x138 +1 x140 +1 x141 +1 x144 >= +1
 c79: +1 x4 +1 x14 +1 x15 +1 x27 +1 x29 +1 x30 +1 x45 +1 x51 +1 x62 +1 x68 +1 x70 +1 x74 +1 x75 +1 x76
  +1 x79 +1 x82 +1 x83 +1 x86 +1 x96 +1 x101 +1 x105 +1 x110 +1 x116 +1 x119 +1 x128 +1 x132 +1 x137 +1 x140
  +1 x143 >= +1
 c80: +1 x4 +1 x9 +1 x14 +1 x19 +1 x21 +1 x24 +1 x43 +1 x44 +1 x46 +1 x50 +1 x51 +1 x55 +1 x69 +1 x70
  +1 x76 +1 x80 +1 x90 +1 x92 +1 x96 +1 x97 +1 x101 +1 x105 +1 x107 +1 x109 +1 x111 +1 x112 +1 x123 +1 x124
  +1 x127 +1 x137 +1 x143 +1 x145 >= +1
 c81: +1 x4 +1 x22 +1 x27 +1 x28 +1 x46 +1 x49 +1 x63 +1 x66 +1 x67 +1 x69 +1 x83 +1 x99 +1 x117 +1 x121
  +1 x122 +1 x125 +1 x128 +1 x131 +1 x144 >= +1
 c82: +1 x3 +1 x8 +1 x12 +1 x22 +1 x27 +1 x29 +1 x37 +1 x59 +1 x72 +1 x80 +1 x90 +1 x95 +1 x96 +1 x97
  +1 x118 +1 x121 +1 x123 +1 x130 +1 x136 +1 x138 +1 x142 >= +1
 c83: +1 x1 +1 x7 +1 x18 +1 x23 +1 x25 +1 x29 +1 x42 +1 x52 +1 x53 +1 x55 +1 x72 +1 x87 +1 x98 +1 x108
  +1 x110 +1 x114 +1 x118 +1 x121 +1 x127 +1 x138 +1 x140 +1 x144 >= +1
 c84: +1 x4 +1 x15 +1 x30 +1 x31 +1 x32 +1 x41 +1 x42 +1 x44 +1 x45 +1 x55 +1 x56 +1 x59 +1 x61 +1 x62
  +1 x64 +1 x72 +1 x76 +1 x105 +1 x107 +1 x110 +1 x113 +1 x122 +1 x133 +1 x136 +1 x143 +1 x147 >= +1
 c85: +1 x1 +1 x9 +1 x13 +1 x15 +1 x30 +1 x33 +1 x36 +1 x42 +1 x45 +1 x46 +1 x47 +1 x48 +1 x52 +1 x64
  +1 x66 +1 x71 +1 x85 +1 x91 +1 x95 +1 x105 +1 x111 +1 x112 +1 x113 +1 x119 +1 x121 +1 x124 +1 x126 +1 x129
  +1 x130 +1 x133 +1 x134 >= +1
 c86: +1 x2 +1 x8 +1 x13 +1 x16 +1 x26 +1 x48 +1 x51 +1 x52 +1 x55 +1 x56 +1 x61 +1 x75 +1 x83 +1 x85
  +1 x88 +1 x94 +1 x97 +1 x99 +1 x103 +1 x110 +1 x126 +1 x127 +1 x129 +1 x131 +1 x135 +1 x136 +1 x139
  +1 x143 +1 x146 >= +1
 c87: +1 x6 +1 x12 +1 x21 +1 x24 +1 x27 +1 x37 +1 x47 +1 x48 +1 x58 +1 x71 +1 x108 +1 x110 +1 x114 +1 x123
  +1 x132 +1 x136 +1 x138 +1 x142 +1 x144 >= +1
 c88: +1 x1 +1 x9 +1 x10 +1 x11 +1 x23 +1 x33 +1 x34 +1 x64 +1 x68 +1 x87 +1 x91 +1 x92 +1 x116 +1 x125
  +1 x128 +1 x129 +1 x130 +1 x138 >= +1
 c89: +1 x0 +1 x6 +1 x8 +1 x15 +1 x24 +1 x32 +1 x35 +1 x38 +1 x40 +1 x75 +1 x82 +1 x85 +1 x86 +1 x88 +1 x91
  +1 x123 +1 x133 +1 x135 +1 x145 >= +1
 c90: +1 x6 +1 x12 +1 x38 +1 x49 +1 x50 +1 x51 +1 x57 +1 x62 +1 x63 +1 x75 +1 x83 +1 x92 +1 x96 +1 x101
  +1 x115 +1 x116 +1 x125 +1 x127 +1 x134 +1 x135 >= +1
 c91: +1 x2 +1 x13 +1 x29 +1 x57 +1 x58 +1 x60 +1 x62 +1 x71 +1 x74 +1 x75 +1 x78 +1 x97 +1 x101 +1 x104
  +1 x108 +1 x117 +1 x118 +1 x132 +1 x133 +1 x141 >= +1
 c92: +1 x6 +1 x7 +1 x12 +1 x13 +1 x18 +1 x24 +1 x25 +1 x27 +1 x40 +1 x42 +1 x46 +1 x55 +1 x56 +1 x58
  +1 x68 +1 x72 +1 x73 +1 x77 +1 x81 +1 x87 +1 x93 +1 x99 +1 x100 +1 x106 +1 x114 +1 x115 +1 x121 +1 x124
  +1 x130 +1 x131 +1 x138 +1 x142 +1 x144 >= +1
 c93: +1 x0 +1 x6 +1 x11 +1 x13 +1 x15 +1 x23 +1 x30 +1 x33 +1 x47 +1 x55 +1 x62 +1 x76 +1 x77 +1 x84
  +1 x88 +1 x93 +1 x94 +1 x100 +1 x104 +1 x105 +1 x110 +1 x114 +1 x115 +1 x138 +1 x142 +1 x144 >= +1
 c94: +1 x0 +1 x11 +1 x25 +1 x28 +1 x29 +1 x40 +1 x52 +1 x60 +1 x63 +1 x67 +1 x82 +1 x87 +1 x116 +1 x123
  +1 x130 +1 x133 +1 x136 +1 x142 +1 x143 >= +1
 c95: +1 x3 +1 x9 +1 x17 +1 x18 +1 x19 +1 x21 +1 x24 +1 x26 +1 x31 +1 x34 +1 x35 +1 x44 +1 x45 +1 x49
  +1 x53 +1 x54 +1 x61 +1 x64 +1 x68 +1 x70 +1 x77 +1 x78 +1 x90 +1 x103 +1 x119 +1 x127 +1 x134 >= +1
 c96: +1 x3 +1 x7 +1 x13 +1 x18 +1 x30 +1 x33 +1 x43 +1 x49 +1 x55 +1 x66 +1 x72 +1 x77 +1 x78 +1 x94
  +1 x96 +1 x100 +1 x112 +1 x114 +1 x117 +1 x124 +1 x135 +1 x146 >= +1
 c97: +1 x0 +1 x7 +1 x11 +1 x15 +1 x22 +1 x25 +1 x26 +1 x33 +1 x35 +1 x36 +1 x45 +1 x54 +1 x58 +1 x69
  +1 x71 +1 x82 +1 x86 +1 x89 +1 x92 +1 x97 +1 x102 +1 x107 +1 x109 +1 x119 +1 x130 +1 x132 +1 x144 +1 x145
  +1 x147 >= +1
 c98: +1 x1 +1 x12 +1 x18 +1 x21 +1 x41 +1 x50 +1 x56 +1 x70 +1 x73 +1 x83 +1 x84 +1 x95 +1 x105 +1 x113
  +1 x116 +1 x126 +1 x128 +1 x135 +1 x143 +1 x144 >= +1
 c99: +1 x1 +1 x7 +1 x14 +1 x19 +1 x25 +1 x32 +1 x38 +1 x44 +1 x47 +1 x58 +1 x59 +1 x63 +1 x76 +1 x77
  +1 x82 +1 x83 +1 x89 +1 x94 +1 x98 +1 x99 +1 x115 +1 x116 +1 x121 +1 x122 +1 x125 +1 x126 +1 x130 +1 x131
  +1 x132 +1 x135 +1 x146 >= +1
 c100: +1 x0 +1 x26 +1 x41 +1 x50 +1 x60 +1 x80 +1 x87 +1 x88 +1 x99 +1 x100 +1 x103 +1 x118 +1 x128 >= +1
 c101: +1 x1 +1 x8 +1 x10 +1 x25 +1 x31 +1 x33 +1 x52 +1 x62 +1 x66 +1 x68 +1 x69 +1 x80 +1 x81 +1 x85
  +1 x92 +1 x101 +1 x104 +1 x107 +1 x122 +1 x125 +1 x129 +1 x131 +1 x137 >= +1
 c102: +1 x0 +1 x18 +1 x21 +1 x24 +1 x26 +1 x31 +1 x32 +1 x33 +1 x52 +1 x54 +1 x59 +1 x65 +1 x68 +1 x76
  +1 x83 +1 x93 +1 x95 +1 x109 +1 x127 +1 x130 +1 x143 >= +1
 c103: +1 x2 +1 x11 +1 x13 +1 x25 +1 x46 +1 x66 +1 x82 +1 x91 +1 x92 +1 x93 +1 x96 +1 x97 +1 x102 +1 x104
  +1 x107 +1 x110 +1 x112 +1 x123 +1 x128 +1 x130 +1 x144 +1 x146 >= +1
 c104: +1 x4 +1 x15 +1 x19 +1 x20 +1 x25 +1 x30 +1 x35 +1 x37 +1 x38 +1 x39 +1 x40 +1 x46 +1 x51 +1 x62
  +1 x66 +1 x74 +1 x78 +1 x96 +1 x99 +1 x114 +1 x118 +1 x124 +1 x133 +1 x134 +1 x138 +1 x141 >= +1
 c105: +1 x2 +1 x13 +1 x17 +1 x23 +1 x26 +1 x39 +1 x45 +1 x47 +1 x48 +1 x50 +1 x58 +1 x63 +1 x70 +1 x95
  +1 x104 +1 x106 +1 x108 +1 x114 +1 x117 +1 x118 +1 x126 +1 x128 +1 x132 +1 x137 >= +1
 c106: +1 x0 +1 x13 +1 x14 +1 x17 +1 x32 +1 x40 +1 x45 +1 x53 +1 x75 +1 x80 +1 x85 +1 x91 +1 x93 +1 x118
  +1 x121 +1 x122 +1 x139 +1 x143 +1 x144 +1 x149 >= +1
 c107: +1 x5 +1 x14 +1 x19 +1 x23 +1 x25 +1 x31 +1 x49 +1 x54 +1 x58 +1 x70 +1 x74 +1 x81 +1 x86 +1 x93
  +1 x99 +1 x104 +1 x105 +1 x127 +1 x131 >= +1
 c108: +1 x5 +1 x7 +1 x8 +1 x14 +1 x16 +1 x30 +1 x35 +1 x37 +1 x38 +1 x39 +1 x40 +1 x46 +1 x59 +1 x60
  +1 x62 +1 x69 +1 x77 +1 x79 +1 x101 +1 x135 +1 x137 +1 x139 +1 x142 +1 x144 +1 x146 >= +1
 c109: +1 x1 +1 x8 +1 x16 +1 x18 +1 x25 +1 x48 +1 x54 +1 x66 +1 x67 +1 x74 +1 x80 +1 x81 +1 x85 +1 x97
  +1 x99 +1 x119 +1 x120 +1 x139 +1 x145 +1 x149 >= +1
 c110: +1 x2 +1 x36 +1 x42 +1 x45 +1 x52 +1 x53 +1 x54 +1 x61 +1 x67 +1 x74 +1 x75 +1 x81 +1 x84 +1 x92
  +1 x97 +1 x118 +1 x120 +1 x122 +1 x134 +1 x138 +1 x139 >= +1
 c111: +1 x3 +1 x9 +1 x12 +1 x15 +1 x22 +1 x38 +1 x48 +1 x49 +1 x51 +1 x54 +1 x55 +1 x56 +1 x58 +1 x69
  +1 x76 +1 x101 +1 x105 +1 x122 +1 x131 +1 x135 +1 x141 +1 x142 +1 x144 +1 x147 >= +1
 c112: +1 x0 +1 x19 +1 x25 +1 x28 +1 x31 +1 x35 +1 x37 +1 x45 +1 x54 +1 x56 +1 x62 +1 x75 +1 x89 +1 x92
  +1 x95 +1 x110 +1 x115 +1 x119 +1 x121 +1 x125 >= +1
 c113: +1 x2 +1 x14 +1 x19 +1 x38 +1 x41 +1 x51 +1 x66 +1 x73 +1 x75 +1 x76 +1 x80 +1 x86 +1 x106 +1 x108
  +1 x112 +1 x115 +1 x121 +1 x125 >= +1
 c114: +1 x1 +1 x17 +1 x27 +1 x34 +1 x53 +1 x58 +1 x61 +1 x64 +1 x66 +1 x69 +1 x73 +1 x82 +1 x84 +1 x88
  +1 x94 +1 x108 +1 x121 +1 x129 +1 x132 +1 x141 >= +1
 c115: +1 x1 +1 x9 +1 x27 +1 x28 +1 x33 +1 x42 +1 x61 +1 x69 +1 x72 +1 x74 +1 x76 +1 x80 +1 x84 +1 x93
  +1 x97 +1 x101 +1 x102 +1 x103 +1 x104 +1 x107 +1 x119 +1 x122 +1 x123 +1 x135 >= +1
 c116: +1 x5 +1 x7 +1 x9 +1 x12 +1 x29 +1 x32 +1 x38 +1 x40 +1 x52 +1 x55 +1 x59 +1 x66 +1 x71 +1 x72
  +1 x75 +1 x102 +1 x103 +1 x118 +1 x121 +1 x127 +1 x139 +1 x148 >= +1
 c117: +1 x5 +1 x7 +1 x8 +1 x20 +1 x28 +1 x44 +1 x46 +1 x47 +1 x59 +1 x61 +1 x63 +1 x65 +1 x75 +1 x82
  +1 x83 +1 x102 +1 x113 +1 x114 +1 x121 >= +1
 c118: +1 x4 +1 x10 +1 x14 +1 x16 +1 x19 +1 x22 +1 x24 +1 x36 +1 x39 +1 x46 +1 x48 +1 x49 +1 x57 +1 x90
  +1 x94 +1 x100 +1 x101 +1 x105 +1 x107 +1 x109 +1 x112 +1 x116 +1 x140 +1 x149 >= +1
 c119: +1 x2 +1 x6 +1 x17 +1 x18 +1 x27 +1 x34 +1 x36 +1 x38 +1 x42 +1 x47 +1 x53 +1 x62 +1 x79 +1 x84
  +1 x127 +1 x131 +1 x144 >= +1
 c120: +1 x5 +1 x12 +1 x17 +1 x38 +1 x47 +1 x58 +1 x61 +1 x64 +1 x73 +1 x82 +1 x103 +1 x114 +1 x121 +1 x127
  +1 x128 +1 x130 +1 x132 +1 x146 +1 x147 >= +1
 c121: +1 x1 +1 x9 +1 x12 +1 x18 +1 x23 +1 x29 +1 x31 +1 x33 +1 x37 +1 x38 +1 x41 +1 x42 +1 x50 +1 x57
  +1 x63 +1 x67 +1 x69 +1 x75 +1 x93 +1 x95 +1 x98 +1 x102 +1 x104 +1 x106 +1 x111 +1 x117 +1 x126 +1 x128
  +1 x129 +1 x130 +1 x143 >= +1
 c122: +1 x3 +1 x13 +1 x20 +1 x24 +1 x28 +1 x41 +1 x51 +1 x54 +1 x55 +1 x57 +1 x69 +1 x78 +1 x80 +1 x85
  +1 x97 +1 x103 +1 x105 +1 x107 +1 x109 +1 x111 +1 x113 +1 x114 +1 x136 +1 x143 +1 x144 +1 x147 +1 x148
  >= +1
 c123: +1 x0 +1 x7 +1 x12 +1 x36 +1 x38 +1 x56 +1 x57 +1 x62 +1 x65 +1 x72 +1 x91 +1 x100 +1 x102 +1 x111
  +1 x114 +1 x125 +1 x126 +1 x144 +1 x146 >= +1
 c124: +1 x3 +1 x11 +1 x12 +1 x17 +1 x61 +1 x66 +1 x92 +1 x95 +1 x110 +1 x111 +1 x116 +1 x131 +1 x140
  +1 x142 +1 x146 >= +1
 c125: +1 x4 +1 x14 +1 x18 +1 x24 +1 x29 +1 x30 +1 x34 +1 x39 +1 x40 +1 x42 +1 x44 +1 x50 +1 x53 +1 x55
  +1 x72 +1 x73 +1 x99 +1 x103 +1 x115 +1 x128 +1 x133 +1 x135 +1 x147 >= +1
 c126: +1 x1 +1 x33 +1 x34 +1 x35 +1 x36 +1 x37 +1 x39 +1 x50 +1 x56 +1 x60 +1 x63 +1 x75 +1 x81 +1 x84
  +1 x89 +1 x91 +1 x95 +1 x101 +1 x104 +1 x105 +1 x109 +1 x117 +1 x123 +1 x125 +1 x126 +1 x137 +1 x146
  +1 x149 >= +1
 c127: +1 x0 +1 x21 +1 x24 +1 x30 +1 x38 +1 x42 +1 x44 +1 x54 +1 x55 +1 x65 +1 x78 +1 x82 +1 x85 +1 x91
  +1 x93 +1 x102 +1 x108 +1 x116 +1 x122 +1 x128 +1 x129 +1 x134 +1 x141 >= +1
 c128: +1 x2 +1 x12 +1 x23 +1 x33 +1 x41 +1 x44 +1 x50 +1 x54 +1 x58 +1 x59 +1 x63 +1 x65 +1 x70 +1 x73
  +1 x76 +1 x79 +1 x81 +1 x92 +1 x101 +1 x105 +1 x110 +1 x117 +1 x125 +1 x140 +1 x147 >= +1
 c129: +1 x1 +1 x7 +1 x12 +1 x14 +1 x31 +1 x40 +1 x48 +1 x61 +1 x63 +1 x75 +1 x79 +1 x81 +1 x84 +1 x91
  +1 x97 +1 x99 +1 x100 +1 x120 +1 x123 +1 x126 +1 x135 +1 x141 >= +1
 c130: +1 x3 +1 x9 +1 x18 +1 x28 +1 x30 +1 x31 +1 x34 +1 x37 +1 x46 +1 x49 +1 x55 +1 x59 +1 x72 +1 x86
  +1 x96 +1 x109 +1 x128 +1 x129 +1 x133 +1 x143 +1 x149 >= +1
 c131: +1 x5 +1 x9 +1 x11 +1 x23 +1 x24 +1 x34 +1 x60 +1 x61 +1 x68 +1 x83 +1 x89 +1 x97 +1 x100 +1 x108
  +1 x118 +1 x120 +1 x137 +1 x146 >= +1
 c132: +1 x5 +1 x9 +1 x18 +1 x23 +1 x36 +1 x41 +1 x49 +1 x51 +1 x52 +1 x54 +1 x57 +1 x75 +1 x85 +1 x87
  +1 x91 +1 x103 +1 x105 +1 x109 +1 x110 +1 x111 +1 x127 +1 x134 +1 x135 +1 x143 >= +1
 c133: +1 x4 +1 x6 +1 x22 +1 x25 +1 x33 +1 x37 +1 x46 +1 x47 +1 x55 +1 x56 +1 x58 +1 x61 +1 x63 +1 x67
  +1 x68 +1 x71 +1 x75 +1 x77 +1 x80 +1 x82 +1 x87 +1 x89 +1 x102 +1 x110 +1 x111 +1 x136 >= +1
 c134: +1 x2 +1 x7 +1 x11 +1 x21 +1 x22 +1 x41 +1 x55 +1 x74 +1 x76 +1 x78 +1 x80 +1 x84 +1 x88 +1 x90
  +1 x103 +1 x111 +1 x113 +1 x123 +1 x126 +1 x129 +1 x136 +1 x139 +1 x142 +1 x145 >= +1
 c135: +1 x5 +1 x11 +1 x22 +1 x30 +1 x31 +1 x39 +1 x68 +1 x80 +1 x84 +1 x88 +1 x90 +1 x98 +1 x100 +1 x101
  +1 x105 +1 x114 +1 x115 +1 x121 +1 x122 +1 x125 +1 x128 +1 x135 >= +1
 c136: +1 x6 +1 x10 +1 x12 +1 x13 +1 x20 +1 x29 +1 x33 +1 x40 +1 x45 +1 x67 +1 x68 +1 x69 +1 x71 +1 x76
  +1 x77 +1 x78 +1 x91 +1 x101 +1 x104 +1 x111 +1 x114 +1 x124 +1 x125 +1 x132 +1 x136 >= +1
 c137: +1 x0 +1 x13 +1 x26 +1 x29 +1 x31 +1 x41 +1 x51 +1 x61 +1 x65 +1 x67 +1 x90 +1 x103 +1 x121 +1 x132
  +1 x134 +1 x137 +1 x140 +1 x142 >= +1
 c138: +1 x5 +1 x8 +1 x23 +1 x30 +1 x31 +1 x38 +1 x40 +1 x49 +1 x52 +1 x68 +1 x71 +1 x75 +1 x78 +1 x94
  +1 x97 +1 x122 +1 x129 +1 x135 +1 x145 >= +1
 c139: +1 x2 +1 x15 +1 x21 +1 x24 +1 x27 +1 x29 +1 x36 +1 x37 +1 x38 +1 x46 +1 x67 +1 x68 +1 x69 +1 x77
  +1 x79 +1 x84 +1 x85 +1 x91 +1 x92 +1 x95 +1 x96 +1 x123 +1 x130 +1 x131 +1 x149 >= +1
 c140: +1 x3 +1 x16 +1 x18 +1 x21 +1 x29 +1 x34 +1 x37 +1 x45 +1 x57 +1 x68 +1 x71 +1 x91 +1 x106 +1 x110
  +1 x115 +1 x117 +1 x119 +1 x120 +1 x130 +1 x132 +1 x135 +1 x136 +1 x138 +1 x140 +1 x141 +1 x146 +1 x148
  >= +1
 c141: +1 x5 +1 x12 +1 x19 +1 x23 +1 x24 +1 x25 +1 x34 +1 x39 +1 x50 +1 x53 +1 x56 +1 x66 +1 x67 +1 x71
  +1 x76 +1 x86 +1 x87 +1 x91 +1 x112 +1 x113 +1 x117 +1 x125 +1 x139 +1 x146 +1 x147 >= +1
 c142: +1 x5 +1 x6 +1 x13 +1 x30 +1 x55 +1 x59 +1 x62 +1 x63 +1 x66 +1 x77 +1 x79 +1 x90 +1 x92 +1 x94
  +1 x101 +1 x102 +1 x114 +1 x129 +1 x130 +1 x132 +1 x138 +1 x143 >= +1
 c143: +1 x3 +1 x7 +1 x8 +1 x13 +1 x17 +1 x23 +1 x34 +1 x39 +1 x43 +1 x56 +1 x57 +1 x61 +1 x62 +1 x69
  +1 x70 +1 x78 +1 x83 +1 x85 +1 x89 +1 x90 +1 x100 +1 x103 +1 x114 +1 x116 +1 x131 +1 x133 +1 x146 >= +1
 c144: +1 x5 +1 x9 +1 x17 +1 x23 +1 x27 +1 x50 +1 x59 +1 x60 +1 x61 +1 x62 +1 x64 +1 x67 +1 x69 +1 x71
  +1 x77 +1 x99 +1 x103 +1 x105 +1 x111 +1 x112 +1 x114 +1 x116 +1 x141 +1 x142 >= +1
 c145: +1 x2 +1 x11 +1 x17 +1 x20 +1 x45 +1 x55 +1 x61 +1 x62 +1 x71 +1 x95 +1 x100 +1 x111 +1 x113 +1 x119
  +1 x125 +1 x134 +1 x138 +1 x143 +1 x148 >= +1
 c146: +1 x2 +1 x8 +1 x10 +1 x15 +1 x19 +1 x22 +1 x23 +1 x24 +1 x37 +1 x52 +1 x56 +1 x68 +1 x78 +1 x86
  +1 x87 +1 x113 +1 x115 +1 x130 +1 x133 +1 x149 >= +1
 c147: +1 x3 +1 x7 +1 x22 +1 x32 +1 x34 +1 x42 +1 x44 +1 x61 +1 x63 +1 x72 +1 x83 +1 x112 +1 x115 +1 x135
  +1 x138 >= +1
 c148: +1 x0 +1 x8 +1 x19 +1 x30 +1 x35 +1 x36 +1 x63 +1 x65 +1 x81 +1 x82 +1 x83 +1 x85 +1 x90 +1 x92
  +1 x94 +1 x95 +1 x103 +1 x106 +1 x114 +1 x127 +1 x130 +1 x131 +1 x138 +1 x143 +1 x149 >= +1
 c149: +1 x0 +1 x14 +1 x35 +1 x39 +1 x44 +1 x46 +1 x49 +1 x52 +1 x58 +1 x61 +1 x63 +1 x65 +1 x68 +1 x70
  +1 x83 +1 x90 +1 x92 +1 x117 +1 x118 +1 x120 +1 x127 +1 x128 +1 x129 +1 x135 >= +1
Bounds
 0 <= x0 <= 1
 0 <= x1 <= 1
 0 <= x2 <= 1
 0 <= x3 <= 1
 0 <= x4 <= 1
 0 <= x5 <= 1
 0 <= x6 <= 1
 0 <= x7 <= 1
 0 <= x8 <= 1
 0 <= x9 <= 1
 0 <= x10 <= 1
 0 <= x11 <= 1
 0 <= x12 <= 1
 0 <= x13 <= 1
 0 <= x14 <= 1
 0 <= x15 <= 1
 0 <= x16 <= 1
 0 <= x17 <= 1
 0 <= x18 <= 1
 0 <= x19 <= 1
 0 <= x20 <= 1
 0 <= x21 <= 1
 0 <= x22 <= 1
 0 <= x23 <= 1
 0 <= x24 <= 1
 0 <= x25 <= 1
 0 <= x26 <= 1
 0 <= x27 <= 1
 0 <= x28 <= 1
 0 <= x29 <= 1
 0 <= x30 <= 1
 0 <= x31 <= 1
 0 <= x32 <= 1
 0 <= x33 <= 1
 0 <= x34 <= 1
 0 <= x35 <= 1
 0 <= x36 <= 1
 0 <= x37 <= 1
 0 <= x38 <= 1
 0 <= x39 <= 1
 0 <= x40 <= 1
 0 <= x41 <= 1
 0 <= x42 <= 1
 0 <= x43 <= 1
 0 <= x44 <= 1
 0 <= x45 <= 1
 0 <= x46 <= 1
 0 <= x47 <= 1
 0 <= x48 <= 1
 0 <= x49 <= 1
 0 <= x50 <= 1
 0 <= x51 <= 1
 0 <= x52 <= 1
 0 <= x53 <= 1
 0 <= x54 <= 1
 0 <= x55 <= 1
 0 <= x56 <= 1
 0 <= x57 <= 1
 0 <= x58 <= 1
 0 <= x59 <= 1
 0 <= x60 <= 1
 0 <= x61 <= 1
 0 <= x62 <= 1
 0 <= x63 <= 1
 0 <= x64 <= 1
 0 <= x65 <= 1
 0 <= x66 <= 1
 0 <= x67 <= 1
 0 <= x68 <= 1
 0 <= x69 <= 1
 0 <= x70 <= 1
 0 <= x71 <= 1
 0 <= x72 <= 1
 0 <= x73 <= 1
 0 <= x74 <= 1
 0 <= x75 <= 1
 0 <= x76 <= 1
 0 <= x77 <= 1
 0 <= x78 <= 1
 0 <= x79 <= 1
 0 <= x80 <= 1
 0 <= x81 <= 1
 0 <= x82 <= 1
 0 <= x83 <= 1
 0 <= x84 <= 1
 0 <= x85 <= 1
 0 <= x86 <= 1
 0 <= x87 <= 1
 0 <= x88 <= 1
 0 <= x89 <= 1
 0 <= x90 <= 1
 0 <= x91 <= 1
 0 <= x92 <= 1
 0 <= x93 <= 1
 0 <= x94 <= 1
 0 <= x95 <= 1
 0 <= x96 <= 1
 0 <= x97 <= 1
 0 <= x98 <= 1
 0 <= x99 <= 1
 0 <= x100 <= 1
 0 <= x101 <= 1
 0 <= x102 <= 1
 0 <= x103 <= 1
 0 <= x104 <= 1
 0 <= x105 <= 1
 0 <= x106 <= 1
 0 <= x107 <= 1
 0 <= x108 <= 1
 0 <= x109 <= 1
 0 <= x110 <= 1
 0 <= x111 <= 1
 0 <= x112 <= 1
 0 <= x113 <= 1
 0 <= x114 <= 1
 0 <= x115 <= 1
 0 <= x116 <= 1
 0 <= x117 <= 1
 0 <= x118 <= 1
 0 <= x119 <= 1
 0 <= x120 <= 1
 0 <= x121 <= 1
 0 <= x122 <= 1
 0 <= x123 <= 1
 0 <= x124 <= 1
 0 <= x125 <= 1
 0 <= x126 <= 1
 0 <= x127 <= 1
 0 <= x128 <= 1
 0 <= x129 <= 1
 0 <= x130 <= 1
 0 <= x131 <= 1
 0 <= x132 <= 1
 0 <= x133 <= 1
 0 <= x134 <= 1
 0 <= x135 <= 1
 0 <= x136 <= 1
 0 <= x137 <= 1
 0 <= x138 <= 1
 0 <= x139 <= 1
 0 <= x140 <= 1
 0 <= x141 <= 1
 0 <= x142 <= 1
 0 <= x143 <= 1
 0 <= x144 <= 1
 0 <= x145 <= 1
 0 <= x146 <= 1
 0 <= x147 <= 1
 0 <= x148 <= 1
 0 <= x149 <= 1
Binaries
 x0 x1 x2 x3 x4 x5 x6 x7 x8 x9 x10 x11 x12 x13 x14 x15 x16 x17 x18 x19 x20 x21 x22 x23 x24 x25 x26 x27
 x28 x29 x30 x31 x32 x33 x34 x35 x36 x37 x38 x39 x40 x41 x42 x43 x44 x45 x46 x47 x48 x49 x50 x51 x52 x53
 x54 x55 x56 x57 x58 x59 x60 x61 x62 x63 x64 x65 x66 x67 x68 x69 x70 x71 x72 x73 x74 x75 x76 x77 x78 x79
 x80 x81 x82 x83 x84 x85 x86 x87 x88 x89 x90 x91 x92 x93 x94 x95 x96 x97 x98 x99 x100 x101 x102 x103 x104
 x105 x106 x107 x108 x109 x110 x111 x112 x113 x114 x115 x116 x117 x118 x119 x120 x121 x122 x123 x124 x125
 x126 x127 x128 x129 x130 x131 x132 x133 x134 x135 x136 x137 x138 x139 x140 x141 x142 x143 x144 x145 x146
 x147 x148 x149
End
